NAME: ACTUAL_TOURS/amz2337
TYPE: TOUR
COMMENT: RouteID_f788b2e2-2ac9-42a8-9405-cb57c3f05e0b
DIMENSION: 134
TOUR_SECTION
94
54
116
3
17
134
19
22
60
110
51
108
34
30
119
43
29
84
64
1
100
102
24
96
10
72
57
128
6
49
93
26
125
11
78
2
99
32
23
95
18
75
35
68
127
25
69
28
73
67
92
20
39
15
70
112
38
44
123
88
53
97
101
79
105
62
80
12
52
121
129
113
77
82
118
132
14
120
66
36
9
13
40
4
47
63
46
114
83
61
90
89
31
8
87
33
74
85
104
58
115
7
106
103
5
131
86
130
107
41
50
71
91
16
109
65
55
48
111
81
59
98
122
56
76
21
126
42
27
45
37
133
117
124
-1
EOF
